
INSTANCE: Golden_1
Solved by RCL 
Route #1: 4 3 2 81 42 83 82 122 123 163 203 204 205 206 166 165 164 124 125 126 127 128 88 89 90 
Route #2: 8 47 48 49 50 51 92 91 131 132 130 129 169 170 171 172 173 133 93 54 15 20 21 22 23 
Route #3: 18 17 16 57 56 55 96 136 137 177 176 216 217 218 219 220 221 222 223 224 225 226 
Route #4: 19 58 59 60 61 102 103 101 100 140 141 142 143 144 104 105 106 107 67 66 62 63 64 65 24 25 26 
Route #5: 32 33 73 72 71 110 150 190 189 188 187 227 228 229 230 231 232 192 191 151 111 70 31 30 
Route #6: 34 74 113 112 152 153 154 194 195 196 197 198 199 200 160 159 119 80 39 40 41 
Route #7: 35 75 114 115 155 156 157 158 118 117 116 76 77 78 43 44 84 85 86 87 46 45 5 6 7 9 10 
Route #8: 97 98 99 139 138 178 179 180 181 182 183 184 185 186 146 145 147 148 149 109 108 69 68 29 27 28 
Route #9: 168 167 207 208 209 210 211 212 213 214 215 175 174 134 135 95 94 53 52 11 12 13 14 
Route #10: 193 233 234 235 236 237 238 239 240 241 202 162 201 161 121 120 79 38 37 36 
>>>>>>>>>>>>>>>>>>>>>>>>>>>>>>>>> Primeira melhora!
Iteração 1: Custo Atual = 549.393
Initial cost: 563.961
>>>>>>>>>>>>>>>>>>>>>>>>>>>>>>>>> Primeira melhora!
Iteração 1: Custo Atual = 715.935
Initial cost: 715.935
>>>>>>>>>>>>>>>>>>>>>>>>>>>>>>>>> Primeira melhora!
Iteração 1: Custo Atual = 504.503
Initial cost: 530.094
>>>>>>>>>>>>>>>>>>>>>>>>>>>>>>>>> Primeira melhora!
Iteração 1: Custo Atual = 624.353
Initial cost: 628.632
>>>>>>>>>>>>>>>>>>>>>>>>>>>>>>>>> Primeira melhora!
Iteração 1: Custo Atual = 657.849
Initial cost: 669.913

INSTANCE: Golden_2
Solved by RCL 
Route #1: 2 42 82 122 123 124 125 126 128 127 167 168 166 165 205 206 207 208 209 210 170 169 129 130 131 132 92 93 53 52 12 13 10 11 
Route #2: 16 56 96 136 176 177 217 216 256 296 297 298 299 300 301 302 303 304 305 306 266 265 
Route #3: 18 19 17 57 58 98 99 100 97 137 138 139 140 180 181 179 178 218 219 220 221 222 182 142 141 101 102 62 61 59 60 20 21 
Route #4: 22 23 24 25 65 105 145 185 186 187 188 190 230 189 149 148 147 146 106 107 108 109 69 70 30 26 27 
Route #5: 33 73 113 112 152 153 193 192 232 272 312 313 314 315 316 317 318 319 320 321 281 242 202 241 
Route #6: 34 74 75 76 116 117 115 114 154 194 195 155 156 157 158 198 159 119 118 78 77 79 43 83 84 85 86 87 88 89 90 91 51 50 49 9 
Route #7: 35 36 37 38 39 40 3 4 44 45 46 47 48 8 7 5 6 
Route #8: 162 201 163 164 204 203 243 244 245 246 247 248 249 250 251 211 171 172 174 175 135 95 55 15 
Route #9: 196 197 237 238 236 235 234 233 273 274 275 276 277 278 279 280 240 239 199 200 160 161 121 120 80 81 41 
Route #10: 215 214 254 294 295 255 257 258 259 260 261 262 263 264 224 223 183 184 144 143 103 104 64 63 66 67 68 28 29 
Route #11: 225 226 227 228 229 269 270 268 267 307 308 309 310 311 271 231 191 151 150 110 111 71 72 32 31 
Route #12: 282 283 284 285 286 287 288 289 290 291 292 293 253 252 212 213 173 133 134 94 54 14 
>>>>>>>>>>>>>>>>>>>>>>>>>>>>>>>>> Primeira melhora!
Iteração 1: Custo Atual = 837.173
Initial cost: 853.915
>>>>>>>>>>>>>>>>>>>>>>>>>>>>>>>>> Primeira melhora!
Iteração 1: Custo Atual = 772.413
Initial cost: 792.514
>>>>>>>>>>>>>>>>>>>>>>>>>>>>>>>>> Primeira melhora!
Iteração 1: Custo Atual = 616.004
Initial cost: 632.746
>>>>>>>>>>>>>>>>>>>>>>>>>>>>>>>>> Primeira melhora!
Iteração 1: Custo Atual = 781.22
Initial cost: 793.115
>>>>>>>>>>>>>>>>>>>>>>>>>>>>>>>>> Primeira melhora!
Iteração 2: Custo Atual = 214.765
Initial cost: 218.714
>>>>>>>>>>>>>>>>>>>>>>>>>>>>>>>>> Primeira melhora!
Iteração 1: Custo Atual = 919.143
Initial cost: 937.656
>>>>>>>>>>>>>>>>>>>>>>>>>>>>>>>>> Primeira melhora!
Iteração 1: Custo Atual = 980.878
Initial cost: 987.98
>>>>>>>>>>>>>>>>>>>>>>>>>>>>>>>>> Primeira melhora!
Iteração 1: Custo Atual = 902.344
Initial cost: 922.306

INSTANCE: Golden_3
Solved by RCL 
Route #1: 2 42 82 122 123 124 164 163 162 202 203 243 283 284 285 245 244 204 205 165 125 85 84 83 43 44 45 5 4 3 
Route #2: 7 47 88 128 129 169 168 208 209 249 289 329 369 370 371 372 373 374 375 376 377 378 379 339 299 259 219 179 139 99 59 19 
Route #3: 10 9 49 50 89 90 130 170 210 250 290 330 331 332 333 334 335 336 337 338 298 258 218 217 177 178 138 98 58 18 
Route #4: 12 11 51 52 53 92 91 131 171 211 251 291 292 293 294 295 296 297 257 256 216 176 136 137 97 57 17 
Route #5: 13 14 54 55 94 93 133 134 132 172 173 213 212 252 253 254 255 215 214 174 175 135 95 96 56 16 15 
Route #6: 20 60 61 101 100 140 180 220 221 222 262 261 260 300 301 341 340 380 381 382 383 384 385 386 387 347 307 267 266 226 227 
Route #7: 21 22 23 24 64 63 62 102 142 141 181 182 183 184 224 223 263 303 302 342 343 344 345 346 306 305 304 264 265 225 185 186 187 188 189 190 150 149 109 69 71 72 32 31 
Route #8: 26 25 65 66 106 105 104 103 143 144 145 146 147 148 108 107 67 68 28 27 
Route #9: 29 30 70 110 111 112 113 153 151 152 192 191 231 232 233 273 313 314 315 316 276 275 274 234 235 236 196 195 193 194 154 155 156 116 115 114 73 74 75 76 77 37 
Route #10: 33 34 35 36 41 81 121 161 160 200 201 241 281 242 282 322 323 324 325 326 327 287 286 246 206 166 126 86 46 6 
Route #11: 40 80 120 119 159 199 239 240 280 320 321 361 360 400 401 362 363 364 365 366 367 368 328 288 248 247 207 167 127 87 48 8 
Route #12: 228 229 230 270 271 272 312 311 310 309 349 350 351 352 353 354 355 356 357 358 318 317 277 237 197 157 117 78 38 
Route #13: 269 268 308 348 388 389 390 391 392 393 394 395 396 397 398 399 359 319 279 278 238 198 158 118 79 39 
>>>>>>>>>>>>>>>>>>>>>>>>>>>>>>>>> Primeira melhora!
Iteração 1: Custo Atual = 959.701
Initial cost: 961.111
>>>>>>>>>>>>>>>>>>>>>>>>>>>>>>>>> Primeira melhora!
Iteração 1: Custo Atual = 713.446
Initial cost: 728.014
>>>>>>>>>>>>>>>>>>>>>>>>>>>>>>>>> Primeira melhora!
Iteração 13: Custo Atual = 418.887
Initial cost: 418.887
>>>>>>>>>>>>>>>>>>>>>>>>>>>>>>>>> Primeira melhora!
Iteração 1: Custo Atual = 1081.82
Initial cost: 1098.57
>>>>>>>>>>>>>>>>>>>>>>>>>>>>>>>>> Primeira melhora!
Iteração 6: Custo Atual = 1165.85
Initial cost: 1196.49

INSTANCE: Golden_4
Solved by RCL 
Route #1: 2 3 42 43 83 82 122 123 163 164 166 206 246 247 207 208 209 249 248 288 289 329 328 368 369 370 330 290 250 210 170 130 90 89 86 126 127 167 168 169 129 128 88 87 47 46 6 7 9 10 
Route #2: 5 4 44 45 85 84 124 125 165 205 245 285 286 287 327 326 325 365 405 364 404 444 445 446 406 366 367 407 447 448 408 409 449 410 450 451 411 371 331 291 251 211 171 131 
Route #3: 8 48 49 50 51 91 92 132 172 212 252 292 332 372 373 413 412 452 453 454 414 374 334 333 293 294 254 253 213 214 174 173 133 134 94 93 53 54 52 12 11 13 14 15 16 
Route #4: 18 58 98 97 137 138 178 177 176 216 217 257 297 337 377 417 457 416 456 455 415 375 376 336 335 295 296 256 255 215 175 135 136 96 95 55 56 57 17 
Route #5: 22 21 61 101 141 181 221 261 301 260 220 218 258 298 338 339 379 419 378 418 458 459 460 461 421 420 380 381 341 340 300 299 259 219 179 180 140 139 99 100 60 59 19 20 
Route #6: 24 23 63 62 102 142 182 183 223 222 262 263 303 302 342 343 383 382 422 462 463 423 424 464 465 466 467 427 387 388 428 468 469 470 430 429 389 349 348 308 268 
Route #7: 27 28 68 67 107 106 146 145 185 186 226 228 227 267 266 306 307 347 346 386 426 385 425 384 344 345 305 304 264 265 225 224 184 144 143 103 104 105 65 64 66 26 25 
Route #8: 29 69 109 108 148 149 147 187 188 189 229 269 309 310 350 390 391 431 471 432 472 433 473 474 434 394 354 355 315 314 274 234 194 154 156 157 117 116 76 77 37 36 
Route #9: 30 31 33 32 72 73 71 70 110 111 112 152 151 150 190 230 270 271 272 312 311 351 352 392 393 353 313 273 233 232 231 191 192 193 153 113 114 74 75 35 34 
Route #10: 39 40 41 81 80 120 121 161 160 200 201 162 202 203 204 244 243 242 282 283 284 324 323 363 403 443 402 442 481 480 440 441 401 362 322 361 321 281 241 239 238 278 279 319 320 280 240 
Route #11: 115 155 195 196 236 235 275 276 316 356 357 397 396 395 435 475 436 476 437 477 478 438 398 439 479 399 400 360 359 358 318 317 277 237 197 198 199 159 158 118 119 79 78 38 
>>>>>>>>>>>>>>>>>>>>>>>>>>>>>>>>> Primeira melhora!
Iteração 1: Custo Atual = 1350.17
Initial cost: 1378.07
>>>>>>>>>>>>>>>>>>>>>>>>>>>>>>>>> Primeira melhora!
Iteração 1: Custo Atual = 1611.57
Initial cost: 1611.57
>>>>>>>>>>>>>>>>>>>>>>>>>>>>>>>>> Primeira melhora!
Iteração 1: Custo Atual = 1221.11
Initial cost: 1228.33
>>>>>>>>>>>>>>>>>>>>>>>>>>>>>>>>> Primeira melhora!
Iteração 1: Custo Atual = 1188.45
Initial cost: 1188.45
>>>>>>>>>>>>>>>>>>>>>>>>>>>>>>>>> Primeira melhora!
Iteração 1: Custo Atual = 1447.89
Initial cost: 1466.41
>>>>>>>>>>>>>>>>>>>>>>>>>>>>>>>>> Primeira melhora!
Iteração 1: Custo Atual = 1248.21
Initial cost: 1264.9
>>>>>>>>>>>>>>>>>>>>>>>>>>>>>>>>> Primeira melhora!
Iteração 1: Custo Atual = 1311.72
Initial cost: 1327.14
>>>>>>>>>>>>>>>>>>>>>>>>>>>>>>>>> Primeira melhora!
Iteração 1: Custo Atual = 1038.5
Initial cost: 1047.13
>>>>>>>>>>>>>>>>>>>>>>>>>>>>>>>>> Primeira melhora!
Iteração 1: Custo Atual = 1664.89
Initial cost: 1680.17
>>>>>>>>>>>>>>>>>>>>>>>>>>>>>>>>> Primeira melhora!
Iteração 1: Custo Atual = 1572.71
Initial cost: 1588.13

INSTANCE: Golden_5
Solved by RCL 
Route #1: 3 2 22 42 62 82 83 103 102 122 142 123 143 124 144 164 184 163 183 162 182 181 201 161 141 121 101 81 61 41 40 20 21 
Route #2: 5 4 24 44 45 46 26 25 23 43 63 64 84 104 105 125 145 165 185 166 186 146 126 106 86 85 65 66 67 47 27 7 6 8 9 10 
Route #3: 13 33 53 73 93 113 133 153 132 152 112 92 72 52 32 30 29 49 69 89 90 110 130 150 170 190 169 189 149 129 109 108 128 148 168 188 167 187 147 127 107 87 88 68 48 28 
Route #4: 14 34 54 74 94 114 134 154 135 155 136 156 176 196 175 195 174 194 173 193 172 192 171 191 151 131 111 91 71 70 50 51 31 11 12 
Route #5: 15 35 55 75 95 115 116 117 137 157 177 197 178 198 179 199 180 200 160 140 120 100 80 60 59 39 19 18 
Route #6: 16 36 56 57 77 76 96 97 98 118 138 158 139 159 119 99 79 78 58 38 37 17 
>>>>>>>>>>>>>>>>>>>>>>>>>>>>>>>>> Primeira melhora!
Iteração 1: Custo Atual = 1295.33
Initial cost: 1325.43
>>>>>>>>>>>>>>>>>>>>>>>>>>>>>>>>> Primeira melhora!
Iteração 1: Custo Atual = 1138
Initial cost: 1168.1
>>>>>>>>>>>>>>>>>>>>>>>>>>>>>>>>> Primeira melhora!
Iteração 1: Custo Atual = 1729.04
Initial cost: 1760.33
>>>>>>>>>>>>>>>>>>>>>>>>>>>>>>>>> Primeira melhora!
Iteração 1: Custo Atual = 1477.55
Initial cost: 1507.65
>>>>>>>>>>>>>>>>>>>>>>>>>>>>>>>>> Primeira melhora!
Iteração 1: Custo Atual = 1091.96
Initial cost: 1122.06
>>>>>>>>>>>>>>>>>>>>>>>>>>>>>>>>> Primeira melhora!
Iteração 1: Custo Atual = 770.968
Initial cost: 802.257

INSTANCE: Golden_6
Solved by RCL 
Route #1: 2 30 31 59 58 86 114 142 170 198 226 254 255 227 199 171 143 144 145 117 116 115 87 88 89 61 60 32 33 5 3 4 
Route #2: 7 8 6 34 62 90 118 146 174 202 230 229 201 173 172 200 228 256 257 258 259 260 261 233 234 262 263 235 207 206 178 177 205 
Route #3: 9 35 63 91 92 120 119 147 175 203 231 232 204 176 148 149 150 151 179 180 208 236 264 265 237 209 181 153 152 124 96 68 67 39 40 13 
Route #4: 14 42 43 71 99 127 155 183 211 239 267 266 238 210 182 154 126 125 97 98 70 69 41 37 36 64 65 93 121 122 123 95 94 66 38 10 11 12 
Route #5: 15 16 44 72 100 128 156 184 212 240 268 269 270 242 241 213 214 215 243 271 272 244 216 188 189 161 162 134 133 105 104 76 48 20 21 
Route #6: 17 18 46 45 73 101 129 130 158 157 185 186 187 159 160 132 131 103 102 74 75 47 19 
Route #7: 23 22 50 49 77 78 106 107 135 163 191 219 190 218 217 245 273 246 274 275 247 248 276 277 278 279 251 223 195 167 166 138 110 82 81 53 54 26 27 28 
Route #8: 29 57 56 55 83 85 84 112 113 141 169 197 225 253 281 252 280 224 196 168 140 139 111 109 137 165 193 194 222 250 221 249 220 192 164 136 108 80 79 51 52 24 25 
>>>>>>>>>>>>>>>>>>>>>>>>>>>>>>>>> Primeira melhora!
Iteração 2: Custo Atual = 950.798
Initial cost: 955.963
>>>>>>>>>>>>>>>>>>>>>>>>>>>>>>>>> Primeira melhora!
Iteração 13: Custo Atual = 1523.87
Initial cost: 1531.86
>>>>>>>>>>>>>>>>>>>>>>>>>>>>>>>>> Primeira melhora!
Iteração 1: Custo Atual = 1122.8
Initial cost: 1134.37
>>>>>>>>>>>>>>>>>>>>>>>>>>>>>>>>> Primeira melhora!
Iteração 1: Custo Atual = 1249.79
Initial cost: 1250.71
>>>>>>>>>>>>>>>>>>>>>>>>>>>>>>>>> Primeira melhora!
Iteração 1: Custo Atual = 1386.41
Initial cost: 1386.41
>>>>>>>>>>>>>>>>>>>>>>>>>>>>>>>>> Primeira melhora!
Iteração 1: Custo Atual = 1384.29
Initial cost: 1417.55

INSTANCE: Golden_7
Solved by RCL 
Route #1: 4 5 41 40 76 112 148 184 220 256 255 291 327 292 328 293 329 330 294 295 331 296 332 333 334 335 336 337 301 
Route #2: 6 42 78 77 113 149 185 221 257 258 259 260 224 225 226 227 263 262 261 297 298 299 300 264 228 192 193 157 156 120 121 122 123 87 88 52 51 15 16 
Route #3: 9 10 8 7 43 44 45 81 82 80 79 115 151 152 153 117 116 114 150 186 222 223 187 188 189 190 191 155 154 118 119 83 84 85 86 50 49 46 47 48 12 11 13 14 
Route #4: 18 54 90 126 162 198 234 235 236 272 271 307 343 308 344 345 309 310 346 347 348 349 313 277 241 205 169 133 132 131 95 59 58 22 23 26 27 
Route #5: 19 55 56 92 91 127 128 129 165 164 163 199 200 201 202 203 239 238 237 273 274 275 311 312 276 240 204 168 167 166 130 94 93 57 21 20 
Route #6: 24 25 61 60 96 97 98 134 170 206 242 278 279 315 314 350 351 352 316 317 353 318 354 355 319 283 282 246 210 174 138 102 66 65 64 28 29 30 31 
Route #7: 34 33 32 68 69 70 72 108 144 145 181 180 216 252 253 217 182 146 110 74 109 73 37 36 35 
Route #8: 62 63 99 100 136 135 171 207 243 244 280 281 245 209 208 172 173 137 101 104 140 176 212 213 249 285 321 357 356 320 284 248 247 211 175 139 103 67 
Route #9: 71 107 106 105 141 142 143 179 177 178 214 215 251 250 286 322 358 359 360 324 323 287 288 289 325 361 326 290 254 218 219 183 147 111 75 39 38 2 3 
Route #10: 158 194 230 229 265 266 302 338 339 303 304 340 305 341 342 306 270 269 233 197 161 159 195 231 267 268 232 196 160 124 125 89 53 17 
>>>>>>>>>>>>>>>>>>>>>>>>>>>>>>>>> Primeira melhora!
Iteração 1: Custo Atual = 1325.68
Initial cost: 1342.27
